NAME: tsp30-47
TYPE: TSP
DIMENSION: 30
EDGE_WEIGHT_TYPE: EUC_2D
NODE_COORD_SECTION
0 26 18
1 53 98
2 93 14
3 80 75
4 83 37
5 11 33
6 89 90
7 14 21
8 57 96
9 32 86
10 21 35
11 84 98
12 21 98
13 22 75
14 5 85
15 75 98
16 8 14
17 44 75
18 10 39
19 90 15
20 72 46
21 47 25
22 54 92
23 58 27
24 6 33
25 92 33
26 98 78
27 91 92
28 37 39
29 84 52
EOF